sifdecoder -A pc64.lnx.gfo -st   A5NNDNIL

 Problem name: A5NNDNIL

 Double precision version will be formed

 The objective function uses 2 linear groups
 
 There are 20004 linear equality constraints
 
 There are 15004 free variables
 There are 10000 variables bounded only from below 
 There are 35008 fixed variables
 
 
 File successfully decoded
 CUTEST: tools (double precision version) compiled successfully
 CUTEst: ipopt (double precision version) compiled successfully

******************************************************************************
This program contains Ipopt, a library for large-scale nonlinear optimization.
 Ipopt is released as open source code under the Eclipse Public License (EPL).
         For more information visit http://projects.coin-or.org/Ipopt
******************************************************************************

This is Ipopt version trunk, running with linear solver ma57.

Number of nonzeros in equality constraint Jacobian...:    79995
Number of nonzeros in inequality constraint Jacobian.:        0
Number of nonzeros in Lagrangian Hessian.............:    30004

Total number of variables............................:    25004
                     variables with only lower bounds:    10000
                variables with lower and upper bounds:        0
                     variables with only upper bounds:        0
Total number of equality constraints.................:    20004
Total number of inequality constraints...............:        0
        inequality constraints with only lower bounds:        0
   inequality constraints with lower and upper bounds:        0
        inequality constraints with only upper bounds:        0

iter    objective    inf_pr   inf_du lg(mu)  ||d||  lg(rg) alpha_du alpha_pr  ls
   0  4.9999900e-01 9.92e+01 6.22e-01  -1.0 0.00e+00    -  0.00e+00 0.00e+00   0
   1  6.4378235e-01 9.90e+01 1.07e+00  -1.0 7.37e+01    -  1.02e-03 2.00e-03f  1
   2  8.3299269e-01 9.89e+01 1.06e+00  -1.0 5.44e+01    -  1.72e-03 1.70e-03f  1
   3  1.1050925e+00 9.87e+01 1.06e+00  -1.0 1.54e+01    -  1.90e-03 2.02e-03f  1
   4  1.4323893e+00 9.85e+01 1.06e+00  -1.0 3.67e+01    -  1.86e-03 2.14e-03f  1
   5  1.8846255e+00 9.82e+01 1.06e+00  -1.0 2.96e+01    -  2.72e-03 2.70e-03f  1
   6  2.4352920e+00 9.79e+01 1.06e+00  -1.0 4.06e+01    -  3.04e-03 3.08e-03f  1
   7  3.3107996e+00 9.74e+01 1.45e+00  -1.0 3.15e+01    -  3.26e-03 4.76e-03f  1
   8  4.8619608e+00 9.68e+01 2.14e+00  -1.0 1.18e+01   0.0 5.25e-03 6.63e-03f  1
   9  8.2911017e+00 9.54e+01 2.57e+00  -1.0 1.60e+01  -0.5 8.88e-03 1.48e-02f  1
iter    objective    inf_pr   inf_du lg(mu)  ||d||  lg(rg) alpha_du alpha_pr  ls
  10  1.9604056e+01 9.24e+01 9.77e+00  -1.0 1.15e+01  -0.1 1.08e-02 3.06e-02f  1
  11  4.6706064e+01 8.88e+01 9.88e+00  -1.0 1.07e+01   0.4 1.85e-02 3.91e-02f  1
  12  1.1989582e+02 8.08e+01 9.15e+00  -1.0 1.01e+01  -0.1 3.15e-02 9.01e-02f  1
  13  6.0757805e+02 5.90e+01 3.07e+01  -1.0 8.34e+00   0.3 5.29e-02 2.70e-01h  1
  14  6.0798922e+02 5.62e+01 2.48e+01  -1.0 1.08e+01  -0.2 3.09e-01 4.71e-02h  1
  15  1.8033086e+03 2.19e+01 1.94e+01  -1.0 5.75e+00   0.3 4.42e-01 6.10e-01h  1
  16  1.6365816e+03 2.08e+01 4.74e+01  -1.0 1.26e+01  -0.2 5.96e-01 4.99e-02f  1
  17  1.8060375e+03 1.18e+01 8.16e+01  -1.0 2.88e+00   0.2 1.00e+00 4.33e-01h  1
  18  1.5883064e+03 1.11e+01 1.27e+02  -1.0 1.98e+01  -0.3 3.55e-01 6.19e-02f  1
  19  1.5693752e+03 8.46e+00 2.36e+02  -1.0 2.24e+00   0.2 1.00e+00 2.35e-01h  1
iter    objective    inf_pr   inf_du lg(mu)  ||d||  lg(rg) alpha_du alpha_pr  ls
  20  1.4064157e+03 8.07e+00 2.54e+02  -1.0 2.70e+01  -0.3 1.71e-01 4.65e-02f  1
  21  1.3712715e+03 6.45e+00 4.00e+02  -1.0 2.15e+00   0.1 1.00e+00 2.01e-01h  1
  22  1.4260608e+03 1.18e+00 1.30e+02  -1.0 9.47e-01   0.5 1.00e+00 8.17e-01h  1
  23  1.3514985e+03 9.04e-01 1.41e+03  -1.0 2.27e+00   0.1 1.00e+00 2.34e-01f  1
  24  1.3236357e+03 5.22e-01 2.14e+03  -1.0 6.98e-01   0.5 1.00e+00 4.23e-01h  1
  25  1.2754871e+03 4.28e-01 5.14e+03  -1.0 2.51e+00   0.0 1.00e+00 1.80e-01h  1
  26  1.2358730e+03 1.76e-01 4.26e+03  -1.0 6.27e-01   0.4 1.00e+00 5.90e-01h  1
  27  1.1682996e+03 1.34e-01 1.47e+04  -1.0 2.65e+00  -0.0 1.00e+00 2.39e-01h  1
  28  1.1411276e+03 8.39e-02 2.44e+04  -1.0 6.91e-01   0.4 1.00e+00 3.73e-01h  1
  29  1.0665915e+03 6.45e-02 7.12e+04  -1.0 3.06e+00  -0.1 1.00e+00 2.31e-01f  1
iter    objective    inf_pr   inf_du lg(mu)  ||d||  lg(rg) alpha_du alpha_pr  ls
  30  1.0369428e+03 4.12e-02 1.68e+05  -1.0 7.53e-01   0.3 1.00e+00 3.61e-01h  1
  31  9.8379830e+02 3.46e-02 1.62e+06  -1.0 4.21e+00  -0.1 1.00e+00 1.61e-01f  1
  32  9.8338620e+02 3.44e-02 4.13e+07  -1.0 9.74e-01   0.3 1.48e-01 5.11e-03h  1
  33  9.7760755e+02 3.38e-02 1.46e+08  -1.0 4.47e+00  -0.2 8.52e-02 1.83e-02h  1
  34  9.7728182e+02 3.37e-02 5.80e+08  -1.0 1.08e+00   0.2 2.47e-02 3.63e-03h  1
  35  9.7711717e+02 3.37e-02 6.44e+09  -1.0 5.66e+00  -0.2 6.83e-03 4.33e-04h  1
  36  9.7708532e+02 3.37e-02 4.62e+11  -1.0 1.22e+00   0.2 2.50e-02 3.15e-04h  1
  37  9.7532020e+02 3.35e-02 4.51e+11  -1.0 8.64e+00  -0.3 4.13e-02 3.59e-03h  1
  38  9.7524155e+02 3.35e-02 7.24e+11  -1.0 1.32e+00   0.1 2.32e-02 6.93e-04h  1
  39  9.5865476e+02 3.28e-02 6.86e+11  -1.0 4.96e+01  -0.3 5.33e-02 2.06e-02f  1
iter    objective    inf_pr   inf_du lg(mu)  ||d||  lg(rg) alpha_du alpha_pr  ls
  40  8.8887639e+02 1.72e-02 6.26e+11  -1.0 1.39e+00   0.1 8.71e-02 4.76e-01f  1
  41  8.8122872e+02 1.45e-02 6.15e+11  -1.0 4.90e-01   0.5 1.81e-02 1.55e-01f  1
  42  8.3960088e+02 1.08e-02 9.32e+04  -1.0 1.89e+00   0.0 1.00e+00 2.60e-01f  1
  43  8.3955298e+02 1.07e-02 3.60e+11  -1.0 5.23e-01   0.5 2.37e-02 1.09e-03h  1
  44  8.0297532e+02 8.09e-03 1.10e+11  -1.0 1.83e+00  -0.0 6.94e-01 2.47e-01f  1
  45  7.8069544e+02 4.21e-03 3.64e+04  -1.0 5.71e-01   0.4 1.00e+00 4.80e-01f  1
Reallocating memory for MA57: lfact (2897708)
  46  6.8006846e+02 3.11e-03 2.69e+04  -1.7 2.62e+00  -0.1 8.50e-01 2.60e-01f  1
  47  5.9913602e+02 2.10e-03 1.81e+04  -2.5 7.28e-01   0.4 1.00e+00 3.27e-01f  1
  48  5.9888146e+02 2.09e-03 2.64e+10  -2.5 3.86e+00  -0.1 2.79e-03 6.83e-04f  1
  49  5.9804971e+02 2.09e-03 1.80e+04  -2.5 9.00e-01   0.3 1.00e+00 3.98e-03f  1
iter    objective    inf_pr   inf_du lg(mu)  ||d||  lg(rg) alpha_du alpha_pr  ls
  50  5.0973221e+02 1.65e-03 1.42e+04  -2.5 4.99e+00  -0.2 1.00e+00 2.08e-01f  1
  51  4.8967468e+02 1.47e-03 1.26e+04  -2.5 1.03e+00   0.3 1.00e+00 1.09e-01f  1
  52r 4.8967468e+02 1.47e-03 1.00e+03  -2.5 0.00e+00  -0.2 0.00e+00 3.70e-07R  4
  53r 4.8977681e+02 7.59e-04 1.23e+03  -2.5 7.65e-01    -  8.88e-02 1.90e-03f  1
  54  4.8977435e+02 7.59e-04 7.70e+02  -2.5 9.80e-01   0.2 1.06e-03 4.97e-06f  1
  55  4.8950897e+02 7.59e-04 1.60e+06  -2.5 4.64e+00  -0.3 6.24e-01 4.23e-04f  1
  56  4.8940612e+02 7.59e-04 1.90e+07  -2.5 1.03e+00   0.2 1.71e-02 5.27e-04f  1
  57  4.8919985e+02 7.58e-04 7.03e+08  -2.5 5.71e+00  -0.3 2.58e-02 6.02e-04f  1
  58  3.5352657e+02 2.57e-04 8.57e+07  -2.5 1.16e+00   0.1 8.78e-01 6.62e-01f  1
  59  2.9221525e+02 2.27e-04 6.80e+07  -2.5 1.59e+01  -0.4 2.06e-01 1.16e-01f  1
iter    objective    inf_pr   inf_du lg(mu)  ||d||  lg(rg) alpha_du alpha_pr  ls
  60  2.9219929e+02 2.27e-04 3.21e+10  -2.5 1.60e+00   0.1 7.72e-02 1.29e-04h  1
  61  2.9201612e+02 2.27e-04 3.59e+10  -2.5 1.64e+01  -0.4 4.93e-05 4.29e-04f  1
  62  2.5574852e+02 1.68e-04 3.59e+10  -2.5 1.75e+00  -0.0 6.59e-04 2.61e-01f  1
  63  2.5559521e+02 1.67e-04 3.44e+10  -2.5 5.41e-01   0.4 1.59e-03 2.69e-03f  1
  64  2.4565293e+02 1.74e-04 3.43e+10  -2.5 2.06e+00  -0.1 1.52e-03 7.07e-02f  1
  65  2.3944245e+02 3.87e-04 3.43e+10  -2.5 6.36e-01   0.4 4.31e-06 1.02e-01f  1
  66r 2.3944245e+02 3.87e-04 1.00e+03  -2.5 0.00e+00  -0.1 0.00e+00 4.43e-07R  7
  67r 2.3969212e+02 2.76e-04 1.48e+03  -2.5 7.51e-02    -  2.00e-01 1.39e-02f  1
  68  2.3968400e+02 2.76e-04 4.55e+04  -2.5 8.24e+00  -0.6 4.39e-01 3.11e-05f  1
  69  2.3894546e+02 2.74e-04 3.52e+06  -2.5 1.22e+00  -0.2 8.38e-01 8.53e-03f  1
iter    objective    inf_pr   inf_du lg(mu)  ||d||  lg(rg) alpha_du alpha_pr  ls
  70  2.3882675e+02 2.73e-04 5.05e+07  -2.5 5.44e-01   0.3 3.33e-02 2.33e-03f  1
  71  2.3879512e+02 2.73e-04 2.99e+08  -2.5 1.38e+00  -0.2 3.30e-03 3.16e-04f  2
  72  2.3876401e+02 2.73e-04 2.90e+09  -2.5 6.02e-01   0.2 5.19e-03 5.65e-04h  1
  73  1.5170538e+02 1.17e-04 6.28e+08  -2.5 1.66e+00  -0.3 7.83e-01 7.45e-01f  1
  74  1.5167825e+02 1.17e-04 2.00e+10  -2.5 7.29e-01   0.2 3.02e-02 7.29e-04h  1
  75  1.5143245e+02 1.17e-04 8.23e+10  -2.5 3.26e+00  -0.3 2.83e-02 2.67e-03f  1
  76  1.3244040e+02 7.46e-05 7.86e+10  -2.5 8.34e-01   0.1 4.53e-02 4.66e-01f  1
  77  1.1026282e+02 6.24e-05 7.86e+10  -2.5 5.42e+00  -0.4 1.34e-04 2.03e-01f  1
  78  1.1023458e+02 1.69e-04 7.86e+10  -2.5 2.81e+00   0.1 5.21e-07 7.47e-04f  3
  79  1.1022796e+02 2.06e-04 7.86e+10  -2.5 1.22e+01  -0.4 1.82e-04 4.51e-05f  5
iter    objective    inf_pr   inf_du lg(mu)  ||d||  lg(rg) alpha_du alpha_pr  ls
  80  1.1018050e+02 2.05e-04 1.60e+11  -2.5 1.39e+00   0.0 1.56e-01 1.13e-03f  1
  81  1.1017696e+02 3.61e-04 1.60e+11  -2.5 9.93e+00   0.4 1.92e-04 1.92e-04s 10
  82r 1.1017696e+02 3.61e-04 1.00e+03  -2.5 0.00e+00  -0.0 0.00e+00 0.00e+00R  1
  83r 1.1031751e+02 8.81e-05 9.89e+02  -2.5 9.38e-02    -  1.40e-01 8.18e-03f  1
  84  1.1031666e+02 8.81e-05 1.45e+03  -2.5 5.22e+00  -0.5 7.07e-03 1.21e-05f  1
  85  1.1026369e+02 8.80e-05 9.95e+05  -2.5 1.44e+00  -0.1 8.31e-01 1.47e-03f  1
  86  1.1021016e+02 8.77e-05 1.24e+07  -2.5 4.99e-01   0.3 1.30e-01 3.03e-03h  1
  87  1.1018033e+02 8.76e-05 4.68e+08  -2.5 1.80e+00  -0.1 9.12e-02 7.79e-04f  2
  88  1.1015049e+02 8.75e-05 3.24e+10  -2.5 5.69e-01   0.3 1.17e-01 1.55e-03h  1
  89  8.7949697e+01 4.53e-05 6.37e+09  -2.5 2.11e+00  -0.2 8.03e-01 4.83e-01f  1
iter    objective    inf_pr   inf_du lg(mu)  ||d||  lg(rg) alpha_du alpha_pr  ls
  90  8.0825813e+01 2.79e-05 8.45e+02  -2.5 7.28e-01   0.2 1.00e+00 3.86e-01f  1
  91  8.0814755e+01 2.79e-05 1.49e+08  -2.5 2.51e+00  -0.2 4.15e-04 2.57e-04h  1
  92  8.0676712e+01 2.77e-05 1.31e+03  -2.5 7.74e-01   0.2 1.00e+00 7.64e-03f  1
  93  8.0652374e+01 2.77e-05 1.43e+08  -2.5 2.91e+00  -0.3 1.75e-04 5.25e-04f  2
  94  8.0639405e+01 2.77e-05 3.02e+11  -2.5 8.31e-01   0.1 3.80e-01 6.79e-04h  1
  95  6.9691172e+01 2.24e-05 1.61e+11  -2.5 4.23e+00  -0.3 4.68e-01 1.96e-01f  1
  96r 6.9691172e+01 2.24e-05 1.00e+03  -2.5 0.00e+00   0.1 0.00e+00 3.61e-07R  5
  97r 8.1532740e+01 6.52e-06 4.93e+02  -2.5 1.38e-01    -  6.12e-01 4.75e-01f  1
  98  8.1466792e+01 6.51e-06 1.83e+03  -2.5 3.27e+00  -0.4 6.60e-01 1.49e-03f  1
  99  7.8067154e+01 5.38e-06 9.56e+03  -2.5 8.76e-01   0.0 9.13e-01 1.74e-01f  1
iter    objective    inf_pr   inf_du lg(mu)  ||d||  lg(rg) alpha_du alpha_pr  ls
 100  7.5035587e+01 5.08e-06 1.36e+05  -2.5 7.03e+00  -0.4 6.60e-01 5.57e-02f  1
 101  7.4379451e+01 4.93e-06 1.46e+06  -2.5 9.51e-01  -0.0 2.98e-01 3.06e-02f  1
 102  7.1956372e+01 4.73e-06 1.06e+07  -2.5 1.07e+01  -0.5 5.96e-01 4.07e-02f  1
 103  7.1691147e+01 4.67e-06 5.27e+07  -2.5 8.22e-01  -0.1 1.03e-01 1.18e-02f  1
 104  7.1379278e+01 4.67e-06 3.20e+08  -2.5 3.10e+02  -0.5 1.08e-02 1.27e-03f  1
 105  4.6662301e+01 3.69e-06 7.15e-01  -2.5 9.44e-01  -0.1 1.00e+00 1.00e+00f  1
 106  4.6623764e+01 3.69e-06 1.53e+09  -3.8 3.44e+01  -0.6 1.16e-02 2.87e-04f  1
 107  4.6463900e+01 3.67e-06 5.96e+10  -3.8 1.59e+00  -0.2 2.32e-01 6.23e-03f  1
 108  4.5770976e+01 3.50e-06 1.36e+11  -3.8 4.54e-01   0.3 1.31e-01 4.62e-02f  1
 109  4.5756230e+01 3.50e-06 2.39e+10  -3.8 1.95e+00  -0.2 8.24e-01 5.57e-04f  1
iter    objective    inf_pr   inf_du lg(mu)  ||d||  lg(rg) alpha_du alpha_pr  ls
 110  4.4544939e+01 3.34e-06 4.89e+03  -3.8 5.25e-01   0.2 1.00e+00 8.19e-02f  1
 111  4.4531859e+01 3.34e-06 1.12e+10  -3.8 2.47e+00  -0.3 4.69e-08 4.70e-04f  1
 112  4.4531687e+01 3.34e-06 1.19e+10  -3.8 6.17e-01   0.2 1.31e-02 1.13e-05h  1
 113  4.4531687e+01 3.34e-06 1.19e+10  -3.8 2.16e+01  -0.3 3.02e-08 3.30e-10f 19
 114  4.4531687e+01 3.34e-06 1.19e+10  -3.8 6.00e+01   0.1 7.98e-09 2.66e-12f 22
 115  4.4531687e+01 3.34e-06 1.19e+10  -3.8 6.00e+01  -0.4 1.87e-08 6.66e-13f 24
 116  4.4531687e+01 3.34e-06 1.19e+10  -3.8 6.00e+01   0.0 2.90e-05 3.34e-13f 25
 117  4.4531263e+01 1.34e-04 1.19e+10  -3.8 6.18e+01  -0.4 7.26e-09 1.07e-05f  2
 118  4.4497146e+01 1.34e-04 2.26e+10  -3.8 9.60e-01  -0.0 5.66e-03 1.85e-03f  1
 119r 4.4497146e+01 1.34e-04 1.00e+03  -3.8 0.00e+00  -0.5 0.00e+00 2.94e-07R  3
iter    objective    inf_pr   inf_du lg(mu)  ||d||  lg(rg) alpha_du alpha_pr  ls
 120r 4.4501050e+01 3.79e-05 1.01e+03  -3.8 3.88e-01    -  6.65e-02 8.75e-04f  1
 121  4.4501032e+01 3.79e-05 5.05e+02  -3.8 7.75e-01  -0.1 2.26e-04 4.60e-07f  2
 122  4.4500302e+01 3.79e-05 1.44e+07  -3.8 2.14e+00  -0.5 7.79e-01 1.56e-05f  2
 123  4.4499941e+01 3.79e-05 4.81e+11  -3.8 8.60e-01  -0.1 7.83e-01 2.25e-05h  1
 124  4.1013874e+01 3.43e-05 2.80e+11  -3.8 8.21e+00  -0.6 4.18e-01 9.49e-02f  1
 125r 4.1013874e+01 3.43e-05 1.00e+03  -3.8 0.00e+00  -0.2 0.00e+00 4.29e-07R  3
 126r 4.1021059e+01 9.54e-06 1.04e+03  -3.8 1.86e-02    -  4.74e-01 9.26e-03f  1
 127  4.1020560e+01 9.54e-06 2.75e+02  -3.8 3.72e+00  -0.6 1.36e-03 1.05e-05f  1
 128  4.1018226e+01 9.54e-06 1.19e+06  -3.8 1.11e+00  -0.2 8.66e-01 6.06e-05f  1
 129  4.1016194e+01 9.54e-06 1.55e+09  -3.8 4.84e-01   0.2 4.72e-01 1.62e-04f  2
iter    objective    inf_pr   inf_du lg(mu)  ||d||  lg(rg) alpha_du alpha_pr  ls
 130  4.0973948e+01 9.52e-06 1.58e+09  -3.8 1.67e+00  -0.3 2.06e-03 1.98e-03f  1
 131  4.0943411e+01 9.51e-06 1.66e+09  -3.8 1.73e+01  -0.7 4.23e-04 1.09e-03f  1
 132  4.0920301e+01 3.41e-05 1.66e+09  -3.8 1.91e+00  -0.3 3.67e-07 1.01e-03f  1
 133  4.0919746e+01 3.54e-05 1.66e+09  -3.8 1.40e+00   0.1 2.05e-03 3.95e-05f  2
 134  4.0918893e+01 3.66e-05 1.66e+09  -3.8 2.20e+00  -0.4 1.20e-03 3.47e-05f  2
 135  4.0912845e+01 5.05e-05 1.66e+09  -3.8 1.26e+00   0.1 1.34e-03 4.09e-04f  1
 136  4.0881087e+01 9.08e-05 1.65e+09  -3.8 2.63e+00  -0.4 2.26e-03 1.19e-03f  1
 137  4.0846292e+01 1.66e-04 1.64e+09  -3.8 8.40e-01   0.0 4.62e-03 2.23e-03f  1
 138  4.0757588e+01 2.68e-04 1.63e+09  -3.8 3.62e+00  -0.5 6.47e-03 3.02e-03f  1
 139  4.0680917e+01 4.24e-04 1.62e+09  -3.8 9.53e-01  -0.0 7.89e-03 4.67e-03f  1
iter    objective    inf_pr   inf_du lg(mu)  ||d||  lg(rg) alpha_du alpha_pr  ls
 140  4.0444629e+01 6.60e-04 1.61e+09  -3.8 5.50e+00  -0.5 6.24e-03 7.12e-03f  1
 141  4.0342615e+01 8.52e-04 1.58e+09  -3.8 1.09e+00  -0.1 1.88e-02 5.89e-03f  1
 142  3.9898368e+01 1.21e-03 1.56e+09  -3.8 1.02e+01  -0.6 1.53e-02 1.10e-02f  1
 143  3.9610063e+01 1.70e-03 1.49e+09  -3.8 1.23e+00  -0.1 3.99e-02 1.57e-02f  1
 144  3.8072061e+01 2.28e-03 1.44e+09  -3.8 4.01e+01  -0.6 3.66e-02 1.89e-02f  1
 145  3.8069706e+01 2.28e-03 1.73e+09  -3.8 1.52e+00  -0.2 7.53e-04 1.16e-04h  1
 146  3.7613318e+01 3.35e-03 1.54e+09  -3.8 5.04e-01   0.2 1.11e-01 3.67e-02f  1
 147  3.6289011e+01 4.99e-03 1.31e+09  -3.8 1.85e+00  -0.2 1.52e-01 6.03e-02f  1
 148r 3.6289011e+01 4.99e-03 1.00e+03  -2.3 0.00e+00  -0.7 0.00e+00 2.70e-07R  5
 149r 3.6289926e+01 4.79e-03 9.91e+02  -2.3 1.01e+01    -  4.10e-01 4.05e-05f  1
iter    objective    inf_pr   inf_du lg(mu)  ||d||  lg(rg) alpha_du alpha_pr  ls
 150r 4.9829957e+01 6.62e-04 5.95e+02  -2.3 1.31e-01    -  4.08e-01 3.54e-01f  1
 151r 6.3432310e+01 4.33e-04 7.35e+02  -2.3 1.33e-01    -  9.61e-01 2.27e-01f  1
 152r 9.4268731e+02 2.44e-05 9.16e+01  -2.3 1.20e+00    -  7.97e-01 9.41e-01f  1
 153r 1.1495910e+03 2.11e-05 1.56e+02  -2.3 5.33e-01    -  1.00e+00 1.83e-01f  1
 154r 1.8160771e+03 1.12e-05 5.01e+01  -2.3 6.67e-01    -  1.00e+00 8.38e-01f  1
 155r 1.9629138e+03 1.12e-05 4.99e-08  -2.3 2.11e-01    -  1.00e+00 1.00e+00f  1
 156r 1.0986733e+03 2.88e-06 3.47e+00  -5.2 1.44e-01    -  9.35e-01 8.85e-01f  1
 157  1.0093214e+03 2.84e-06 1.08e+03  -3.8 1.75e+00  -0.3 8.15e-01 1.53e-02f  1
 158  9.6678679e+02 2.74e-06 2.96e+04  -3.8 5.87e-01   0.1 9.37e-01 3.52e-02f  1
 159  9.3909288e+02 2.67e-06 2.13e+05  -3.8 3.01e+00  -0.3 1.63e-01 2.65e-02f  1
iter    objective    inf_pr   inf_du lg(mu)  ||d||  lg(rg) alpha_du alpha_pr  ls
 160  9.3815933e+02 2.67e-06 8.94e+05  -3.8 7.25e-01   0.1 1.45e-02 9.96e-04f  1
 161  9.3674341e+02 2.66e-06 3.86e+06  -3.8 3.93e+00  -0.4 8.51e-03 1.40e-03f  1
 162  9.3654414e+02 2.66e-06 7.81e+06  -3.8 8.36e-01   0.0 4.64e-04 2.11e-04f  1
 163  9.3628926e+02 2.66e-06 9.12e+06  -3.8 5.22e+00  -0.4 2.90e-04 2.52e-04f  1
 164  9.3624476e+02 2.66e-06 1.54e+09  -3.8 9.72e-01  -0.0 5.61e-03 4.68e-05f  1
 165  9.3618586e+02 2.66e-06 1.65e+09  -3.8 7.39e+00  -0.5 9.26e-06 5.76e-05f  1
 166  8.7588668e+02 2.88e-05 1.65e+09  -3.8 1.14e+00  -0.1 2.44e-05 6.28e-02f  1
 167  8.7583623e+02 3.38e-05 1.65e+09  -3.8 1.18e+01  -0.5 2.55e-04 5.20e-05f  1
 168  8.7568175e+02 3.38e-05 9.54e+08  -3.8 1.37e+00  -0.1 3.06e-05 1.70e-04f  1
 169  8.7568073e+02 3.39e-05 9.53e+08  -3.8 2.42e+01  -0.6 8.84e-04 1.02e-06f  1
iter    objective    inf_pr   inf_du lg(mu)  ||d||  lg(rg) alpha_du alpha_pr  ls
 170  8.7560590e+02 4.18e-05 9.53e+08  -3.8 1.62e+00  -0.2 2.29e-04 8.19e-05f  1
 171  8.7491379e+02 8.61e-05 9.52e+08  -3.8 3.29e+02  -0.7 1.03e-03 4.60e-04f  1
 172  8.7488584e+02 8.61e-05 9.61e+08  -3.8 2.01e+00  -0.2 7.80e-05 3.04e-05f  1
 173  8.7488504e+02 8.62e-05 9.60e+08  -3.8 6.32e-01   0.2 9.37e-04 9.42e-07f  1
 174  8.7368174e+02 2.11e-04 9.58e+08  -3.8 2.44e+00  -0.3 1.35e-03 1.30e-03f  1
 175  8.7279346e+02 3.10e-04 9.57e+08  -3.8 6.41e-01   0.2 1.85e-03 1.03e-03f  1
 176  8.7133309e+02 4.60e-04 9.55e+08  -3.8 3.00e+00  -0.3 2.13e-03 1.57e-03f  1
 177  8.7133221e+02 4.60e-04 1.14e+09  -3.8 7.39e-01   0.1 9.51e-05 1.01e-06f  2
 178  8.7130901e+02 4.60e-04 1.14e+09  -3.8 3.78e+00  -0.4 2.96e-06 2.48e-05f  1
 179  8.7130622e+02 4.60e-04 6.42e+09  -3.8 8.53e-01   0.0 1.05e-03 3.18e-06f  1
iter    objective    inf_pr   inf_du lg(mu)  ||d||  lg(rg) alpha_du alpha_pr  ls
 180  8.7129587e+02 4.61e-04 6.41e+09  -3.8 4.90e+00  -0.4 2.01e-03 1.10e-05f  1
 181  8.7125435e+02 4.66e-04 6.39e+09  -3.8 9.89e-01  -0.0 2.48e-03 4.69e-05f  3
 182  8.7121878e+02 4.66e-04 6.34e+09  -3.8 6.66e+00  -0.5 4.96e-06 3.74e-05f  1
 183  8.7121276e+02 4.66e-04 6.34e+09  -3.8 1.15e+00  -0.1 4.70e-06 6.74e-06f  1
 184  8.7118346e+02 4.69e-04 6.33e+09  -3.8 9.77e+00  -0.5 8.13e-04 3.05e-05f  1
 185  8.7117827e+02 4.69e-04 6.33e+09  -3.8 1.35e+00  -0.1 6.24e-04 5.77e-06f  9
 186  8.7117768e+02 4.69e-04 6.32e+09  -3.8 1.67e+01  -0.6 1.01e-03 6.05e-07f 13
 187  8.7117743e+02 4.69e-04 6.31e+09  -3.8 1.59e+00  -0.2 1.11e-03 2.68e-07f 15
 188  8.7117733e+02 4.69e-04 6.31e+09  -3.8 4.52e+01  -0.6 4.75e-04 9.57e-08f 17
 189  8.7117729e+02 4.69e-04 6.30e+09  -3.8 1.90e+00  -0.2 1.85e-03 5.34e-08f 18
iter    objective    inf_pr   inf_du lg(mu)  ||d||  lg(rg) alpha_du alpha_pr  ls
 190r 8.7117729e+02 4.69e-04 1.00e+03  -3.3 0.00e+00   0.2 0.00e+00 1.11e-07R  2
 191r 8.7118122e+02 5.73e-05 1.25e+03  -3.3 1.56e+00    -  1.49e-01 9.91e-04f  1
 192  8.7114783e+02 5.73e-05 1.55e+01  -3.8 1.75e+00  -0.3 4.13e-05 7.19e-06f  1
 193  8.7112068e+02 5.73e-05 5.19e+05  -3.8 1.09e+01  -0.7 4.27e-01 5.34e-06f  1
 194  8.7095793e+02 5.73e-05 2.92e+06  -3.8 1.60e+01  -1.2 9.31e-04 9.78e-05f  1
 195  4.6488558e+02 4.29e-05 2.20e+06  -3.8 5.04e+00  -0.8 2.47e-01 2.50e-01f  1
 196  4.6484284e+02 4.29e-05 2.48e+07  -3.8 5.45e+00  -1.3 1.15e-03 6.13e-05f  1
 197  4.3966163e+02 4.14e-05 2.12e+07  -3.8 1.93e+01  -1.7 1.45e-01 3.52e-02f  1
 198  4.3965454e+02 4.14e-05 2.57e+08  -3.8 3.52e+00    -  2.01e-04 1.17e-05f  1
 199  4.3965213e+02 4.14e-05 1.65e+09  -3.8 3.52e+00    -  4.42e-05 3.95e-06f  2
Reallocating memory for MA57: lfact (11101967)
iter    objective    inf_pr   inf_du lg(mu)  ||d||  lg(rg) alpha_du alpha_pr  ls
 200  4.0981301e+02 3.94e-05 1.59e+09  -3.8 3.52e+00    -  3.77e-02 4.91e-02f  1
 201  4.0945867e+02 3.94e-05 1.93e+11  -3.8 2.58e+00    -  5.75e-06 6.38e-04f  1
 202  4.0936585e+02 3.94e-05 1.93e+11  -3.8 2.58e+00    -  3.96e-04 1.67e-04f  1
 203  4.0936574e+02 3.94e-05 1.93e+11  -3.8 2.58e+00    -  2.64e-03 1.88e-07f  2
 204  4.0924927e+02 3.94e-05 1.93e+11  -3.8 2.56e+00    -  2.23e-05 2.10e-04f  1
 205  4.0921468e+02 3.93e-05 1.93e+11  -3.8 2.56e+00    -  1.75e-03 6.24e-05f  1
 206r 4.0921468e+02 3.93e-05 1.00e+03  -3.8 0.00e+00    -  0.00e+00 3.42e-07R  3
 207r 4.0921914e+02 2.65e-05 1.35e+03  -3.8 6.61e-03    -  8.17e-02 7.11e-03f  1
 208  4.0917892e+02 2.65e-05 1.45e+02  -3.8 9.90e+00    -  7.44e-04 1.71e-05f  1
 209  4.0883308e+02 2.65e-05 6.45e+05  -3.8 9.45e+00    -  5.00e-01 1.48e-04f  1
iter    objective    inf_pr   inf_du lg(mu)  ||d||  lg(rg) alpha_du alpha_pr  ls
 210  4.0874641e+02 2.65e-05 5.69e+06  -3.8 1.54e+00    -  1.61e-03 1.36e-04f  1
 211  4.0873041e+02 2.65e-05 1.18e+09  -3.8 1.54e+00    -  5.55e-03 2.51e-05f  1
 212  4.0872937e+02 2.65e-05 7.33e+10  -3.8 1.54e+00    -  2.05e-04 1.63e-06f  2
 213  2.8462833e+02 2.13e-05 6.91e+10  -3.8 1.54e+00    -  5.72e-02 1.95e-01f  1
 214  2.8457429e+02 2.13e-05 2.57e+12  -3.8 1.23e+00    -  4.80e-03 1.30e-04f  1
 215  2.8439160e+02 2.13e-05 3.92e+12  -3.8 1.23e+00    -  1.75e-03 4.41e-04f  1
Reallocating memory for MA57: lfact (12793124)
 216  2.5756758e+02 1.99e-05 3.19e+12  -3.8 1.23e+00    -  1.85e-01 6.48e-02f  1
 217  2.5716102e+02 1.99e-05 2.56e+12  -3.8 1.26e+00    -  8.86e-06 1.20e-03f  1
 218  2.5664999e+02 1.99e-05 2.56e+12  -3.8 1.26e+00    -  1.11e-06 1.52e-03f  1
 219  2.5664967e+02 1.99e-05 3.44e+12  -3.8 1.26e+00    -  2.35e-03 9.37e-07f  2
iter    objective    inf_pr   inf_du lg(mu)  ||d||  lg(rg) alpha_du alpha_pr  ls
 220r 2.5664967e+02 1.99e-05 1.00e+03  -3.8 0.00e+00    -  0.00e+00 3.09e-07R  2
 221r 2.5665193e+02 1.40e-05 1.24e+03  -3.8 3.24e-03    -  1.11e-01 3.67e-03f  1
 222  2.5663910e+02 1.40e-05 1.29e+01  -3.8 6.01e+00    -  4.05e-05 9.24e-06f  1
 223  2.5660468e+02 1.40e-05 7.39e+02  -3.8 6.00e+00    -  6.76e-04 2.48e-05f  1
 224  2.5656014e+02 1.40e-05 3.95e+06  -3.8 5.86e+00    -  6.20e-01 3.22e-05f  1
 225  2.5652619e+02 1.40e-05 2.68e+08  -3.8 1.26e+00    -  7.09e-03 1.01e-04f  1
 226r 2.5652619e+02 1.40e-05 1.00e+03  -3.8 0.00e+00    -  0.00e+00 3.19e-07R  2
 227r 2.5652646e+02 1.37e-05 1.38e+03  -3.8 3.08e-03    -  1.82e-01 4.41e-04f  1
 228r 2.5666194e+02 2.62e-06 1.18e+03  -3.8 2.42e-03    -  1.23e-01 1.80e-01f  1
 229  2.5496950e+02 2.62e-06 3.87e+03  -3.8 5.99e+00    -  6.14e-01 1.22e-03f  1
iter    objective    inf_pr   inf_du lg(mu)  ||d||  lg(rg) alpha_du alpha_pr  ls
 230  2.5353915e+02 2.61e-06 8.58e+04  -3.8 1.25e+00    -  9.39e-02 4.25e-03f  1
 231  2.5305173e+02 2.60e-06 7.42e+05  -3.8 1.28e+00    -  1.24e-02 1.51e-03f  1
 232  2.5266980e+02 2.60e-06 6.71e+06  -3.8 1.28e+00    -  1.33e-02 1.19e-03f  1
 233  2.5259989e+02 2.60e-06 3.54e+07  -3.8 1.28e+00    -  1.25e-03 2.20e-04f  1
 234  2.5259908e+02 2.60e-06 3.16e+10  -3.8 1.28e+00    -  8.18e-03 2.56e-06f  2
 235  2.5256578e+02 2.60e-06 2.21e+12  -3.8 1.28e+00    -  7.37e-03 1.05e-04f  1
 236  2.5249735e+02 2.61e-06 3.90e+12  -3.8 1.29e+00    -  3.94e-03 2.16e-04f  1
 237  2.4032618e+02 2.58e-06 8.18e+11  -3.8 1.29e+00    -  7.91e-01 3.85e-02f  1
Reallocating memory for MA57: lfact (16126332)
 238  1.4115080e+02 2.33e-06 4.46e+11  -3.8 1.48e+00    -  4.55e-01 4.05e-01f  1
Reallocating memory for MA57: lfact (17865831)
 239  1.3175333e+01 2.13e-06 3.60e+10  -3.8 7.94e-01    -  9.19e-01 9.24e-01f  1
iter    objective    inf_pr   inf_du lg(mu)  ||d||  lg(rg) alpha_du alpha_pr  ls
 240  3.6735703e+00 2.10e-06 4.54e+00  -3.8 1.03e-01    -  1.00e+00 9.98e-01f  1
 241  3.4824609e+00 2.08e-06 2.24e+04  -8.6 5.67e-02    -  9.01e-01 1.29e-01f  1
 242  2.7858758e+00 2.08e-06 1.39e+04  -8.6 6.63e-02    -  9.45e-01 5.11e-01f  1
 243  2.4372956e+00 2.07e-06 6.59e+03  -8.6 4.51e-02    -  5.61e-01 5.44e-01f  1
 244  2.2810023e+00 2.07e-06 5.39e+03  -8.6 2.69e-02    -  6.81e-01 5.69e-01f  1
 245  2.2027088e+00 2.07e-06 2.07e+03  -8.6 1.68e-02    -  6.89e-01 6.75e-01f  1
 246  2.1745572e+00 2.07e-06 4.99e+02  -8.6 9.66e-03    -  7.03e-01 7.41e-01h  1
 247  2.1666174e+00 2.07e-06 1.71e+03  -8.6 5.50e-03    -  7.23e-01 7.77e-01h  1
 248  2.1656233e+00 2.07e-06 6.94e+03  -8.6 3.22e-03    -  6.66e-01 4.10e-01h  1
 249  2.1650058e+00 2.07e-06 6.80e+03  -8.6 2.81e-03    -  5.54e-01 4.27e-01h  1
iter    objective    inf_pr   inf_du lg(mu)  ||d||  lg(rg) alpha_du alpha_pr  ls
 250  2.1647067e+00 2.07e-06 1.20e+04  -8.6 2.20e-03    -  7.04e-01 3.65e-01f  1
 251  2.1644237e+00 2.07e-06 1.09e+04  -8.6 1.88e-03    -  8.74e-01 5.53e-01f  1
 252  2.1643081e+00 2.07e-06 1.83e+02  -8.6 1.30e-03    -  2.42e-01 5.30e-01h  1
 253  2.1642694e+00 2.07e-06 1.70e+04  -8.6 7.80e-04    -  9.79e-01 3.99e-01f  1
 254  2.1642385e+00 2.07e-06 1.20e+04  -8.6 7.15e-04    -  9.61e-01 5.74e-01f  1
 255  2.1642247e+00 2.07e-06 1.01e+04  -8.6 4.52e-04    -  1.00e+00 6.54e-01f  1
 256r 2.1642247e+00 2.07e-06 1.00e+03  -5.7 0.00e+00    -  0.00e+00 4.90e-11R  2
 257r 2.1642490e+00 2.32e-06 1.00e+03  -5.7 4.85e-01    -  1.05e-02 1.92e-03f  1
 258r 2.1645769e+00 3.19e-06 9.86e+02  -5.7 1.64e-01    -  1.12e-02 1.37e-02f  1
 259r 2.1656950e+00 3.19e-06 9.62e+02  -5.7 1.09e-01    -  3.22e-02 2.68e-02f  1
iter    objective    inf_pr   inf_du lg(mu)  ||d||  lg(rg) alpha_du alpha_pr  ls
 260r 2.1700472e+00 3.19e-06 9.65e+02  -5.7 7.07e-02    -  4.43e-02 7.02e-02f  1
 261r 2.1755419e+00 3.18e-06 8.31e+02  -5.7 4.64e-02    -  8.37e-02 7.61e-02f  1
 262r 2.1793804e+00 3.18e-06 8.95e+02  -5.7 3.45e-02    -  1.25e-02 5.37e-02f  1
 263r 2.1878207e+00 3.18e-06 1.22e+03  -5.7 3.15e-02    -  5.28e-02 1.09e-01f  1
 264r 2.1945578e+00 3.17e-06 1.12e+03  -5.7 2.68e-02    -  1.08e-01 8.98e-02f  1
 265r 2.2015182e+00 3.16e-06 1.59e+03  -5.7 2.36e-02    -  8.61e-03 9.71e-02f  1
 266r 2.2045001e+00 3.16e-06 1.10e+03  -5.7 2.11e-02    -  1.12e-01 4.41e-02f  1
 267r 2.2108017e+00 3.16e-06 9.95e+02  -5.7 1.98e-02    -  8.14e-02 9.41e-02f  1
 268r 2.2214434e+00 3.15e-06 8.37e+02  -5.7 1.77e-02    -  1.13e-01 1.63e-01f  1
 269r 2.2253591e+00 3.15e-06 7.81e+02  -5.7 1.45e-02    -  6.10e-02 6.68e-02f  1
iter    objective    inf_pr   inf_du lg(mu)  ||d||  lg(rg) alpha_du alpha_pr  ls
 270r 2.2325026e+00 3.15e-06 6.85e+02  -5.7 1.35e-02    -  1.37e-01 1.24e-01f  1
 271r 2.2407875e+00 3.14e-06 5.79e+02  -5.7 1.24e-02    -  2.51e-01 1.49e-01f  1
 272r 2.2531063e+00 3.13e-06 4.54e+02  -5.7 1.14e-02    -  1.96e-01 2.16e-01f  1
 273r 2.2711329e+00 3.13e-06 3.12e+02  -5.7 1.09e-02    -  3.14e-01 3.12e-01f  1
 274r 2.3321144e+00 3.13e-06 5.35e+02  -5.7 1.18e-02    -  3.91e-01 9.08e-01f  1
 275r 2.4154579e+00 3.13e-06 1.25e+02  -5.7 1.18e-02    -  8.64e-01 1.00e+00f  1
 276r 3.0170063e+00 3.12e-06 1.17e+01  -5.7 2.72e-02    -  9.64e-01 1.00e+00f  1
 277r 1.7688969e+01 3.12e-06 4.42e+01  -5.7 1.55e-01    -  4.20e-01 1.00e+00f  1
 278r 3.2617891e+01 3.12e-06 2.22e+01  -5.7 9.39e-02    -  6.52e-01 1.00e+00f  1
 279r 7.8529473e+01 3.12e-06 6.73e+00  -5.7 6.40e-02    -  7.03e-01 1.00e+00f  1
iter    objective    inf_pr   inf_du lg(mu)  ||d||  lg(rg) alpha_du alpha_pr  ls
 280r 1.7879589e+02 3.12e-06 2.09e-11  -5.7 4.47e-02    -  1.00e+00 1.00e+00f  1
 281r 1.1246784e+02 3.13e-06 7.25e+00  -8.5 2.54e-02    -  7.92e-01 7.58e-01f  1
 282r 1.1091819e+02 3.13e-06 5.08e+01  -8.5 2.08e-03    -  6.22e-01 5.34e-01f  1
 283r 1.0721900e+02 3.13e-06 1.84e+01  -8.5 2.89e-03    -  4.52e-01 5.53e-01f  1
 284r 1.0387494e+02 3.13e-06 7.36e+01  -8.5 3.70e-03    -  6.17e-01 3.35e-01f  1
 285r 9.1727069e+01 3.13e-06 1.58e+01  -8.5 6.92e-03    -  6.73e-01 7.02e-01f  1
 286r 7.8378720e+01 3.13e-06 1.65e+01  -8.5 8.65e-03    -  6.04e-01 6.61e-01f  1
 287r 6.6041283e+01 3.13e-06 7.37e+00  -8.5 7.33e-03    -  1.00e+00 7.72e-01f  1

Number of Iterations....: 287

                                   (scaled)                 (unscaled)
Objective...............:   5.5987641512277776e+01    5.5987641512277776e+01
Dual infeasibility......:   9.9906249427822580e+00    9.9906249427822580e+00
Constraint violation....:   3.1332369086088506e-06    3.1332369086088506e-06
Complementarity.........:   4.3189639395027759e-09    4.3189639395027759e-09
Overall NLP error.......:   9.9906249427822580e+00    9.9906249427822580e+00


Number of objective function evaluations             = 532
Number of objective gradient evaluations             = 250
Number of equality constraint evaluations            = 532
Number of inequality constraint evaluations          = 0
Number of equality constraint Jacobian evaluations   = 301
Number of inequality constraint Jacobian evaluations = 0
Number of Lagrangian Hessian evaluations             = 288
Total CPU secs in IPOPT (w/o function evaluations)   =    123.610
Total CPU secs in NLP function evaluations           =     16.868

EXIT: Converged to a point of local infeasibility. Problem may be infeasible.

************************ CUTEst statistics ************************


 Package used            :  IPOPT
 Problem                 :  A5NNDNIL  
 # variables             =           60012
 # constraints           =           20004
 # objective functions   =        0.7830000E+03
 # objective gradients   =        0.2510000E+03
 # objective Hessians    =        0.2770000E+03
 # Hessian-vector prdct  =        0.0000000E+00
 # constraints functions =        0.8350000E+03
 # constraints gradients =        0.3030000E+03
 # constraints Hessians  =        0.2770000E+03
 Exit code               =               2
 Final f                 =        5.5987641512277776D+01
 Bounds feasibility      =        9.9970178906430016D-09
 Set up time             =            0.78 seconds
 Solve time              =          277.26 seconds


******************************************************************

